CKP/CKP_n50_Instance_9.lp
\ENCODING=ISO-8859-1
\Problem name: CKP

Maximize
 obj: x1 + x2 + x3 + x4 + x5 + x6 + x7 + x8 + x9 + x10 + x11 + x12 + x13 + x14
      + x15 + x16 + x17 + x18 + x19 + x20 + x21 + x22 + x23 + x24 + x25 + x26
      + x27 + x28 + x29 + x30 + x31 + x32 + x33 + x34 + x35 + x36 + x37 + x38
      + x39 + x40 + x41 + x42 + x43 + x44 + x45 + x46 + x47 + x48 + x49 + x50
Subject To
 c1: 15722 x1 + 15723 x2 + 15724 x3 + 15760 x4 + 15761 x5 + 15762 x6 + 15798 x7
     + 15799 x8 + 15800 x9 + 16398 x10 + 16399 x11 + 16400 x12 + 16436 x13
     + 16437 x14 + 16438 x15 + 16474 x16 + 16475 x17 + 16476 x18 + 17074 x19
     + 17075 x20 + 17076 x21 + 17112 x22 + 17113 x23 + 15722 x24 + 15724 x25
     + 15760 x26 + 15761 x27 + 15799 x28 + 15800 x29 + 16400 x30 + 16436 x31
     + 16437 x32 + 16438 x33 + 16476 x34 + 17074 x35 + 17075 x36 + 17076 x37
     + 17112 x38 + 17113 x39 + 17114 x40 + 17150 x41 + 17151 x42 + 17152 x43
     + 30731 x44 + 30732 x45 + 30733 x46 + 30769 x47 + 30771 x48 + 30807 x49
     + 31407 x50 >= 453190
 c2: 15722 x1 + 15723 x2 + 15724 x3 + 15760 x4 + 15761 x5 + 15762 x6 + 15798 x7
     + 15799 x8 + 15800 x9 + 16398 x10 + 16399 x11 + 16400 x12 + 16436 x13
     + 16437 x14 + 16438 x15 + 16474 x16 + 16475 x17 + 16476 x18 + 17074 x19
     + 17075 x20 + 17076 x21 + 17112 x22 + 17113 x23 + 15722 x24 + 15724 x25
     + 15760 x26 + 15761 x27 + 15799 x28 + 15800 x29 + 16400 x30 + 16436 x31
     + 16437 x32 + 16438 x33 + 16476 x34 + 17074 x35 + 17075 x36 + 17076 x37
     + 17112 x38 + 17113 x39 + 17114 x40 + 17150 x41 + 17151 x42 + 17152 x43
     + 30731 x44 + 30732 x45 + 30733 x46 + 30769 x47 + 30771 x48 + 30807 x49
     + 31407 x50 <= 453191
Bounds
 0 <= x1 <= 1
 0 <= x2 <= 1
 0 <= x3 <= 1
 0 <= x4 <= 1
 0 <= x5 <= 1
 0 <= x6 <= 1
 0 <= x7 <= 1
 0 <= x8 <= 1
 0 <= x9 <= 1
 0 <= x10 <= 1
 0 <= x11 <= 1
 0 <= x12 <= 1
 0 <= x13 <= 1
 0 <= x14 <= 1
 0 <= x15 <= 1
 0 <= x16 <= 1
 0 <= x17 <= 1
 0 <= x18 <= 1
 0 <= x19 <= 1
 0 <= x20 <= 1
 0 <= x21 <= 1
 0 <= x22 <= 1
 0 <= x23 <= 1
 0 <= x24 <= 1
 0 <= x25 <= 1
 0 <= x26 <= 1
 0 <= x27 <= 1
 0 <= x28 <= 1
 0 <= x29 <= 1
 0 <= x30 <= 1
 0 <= x31 <= 1
 0 <= x32 <= 1
 0 <= x33 <= 1
 0 <= x34 <= 1
 0 <= x35 <= 1
 0 <= x36 <= 1
 0 <= x37 <= 1
 0 <= x38 <= 1
 0 <= x39 <= 1
 0 <= x40 <= 1
 0 <= x41 <= 1
 0 <= x42 <= 1
 0 <= x43 <= 1
 0 <= x44 <= 1
 0 <= x45 <= 1
 0 <= x46 <= 1
 0 <= x47 <= 1
 0 <= x48 <= 1
 0 <= x49 <= 1
 0 <= x50 <= 1
Binaries
 x1  x2  x3  x4  x5  x6  x7  x8  x9  x10  x11  x12  x13  x14  x15  x16  x17 
 x18  x19  x20  x21  x22  x23  x24  x25  x26  x27  x28  x29  x30  x31  x32 
 x33  x34  x35  x36  x37  x38  x39  x40  x41  x42  x43  x44  x45  x46  x47 
 x48  x49  x50 
End
