CKP/CKP_n50_Instance_9.lp.txt
\ENCODING=ISO-8859-1
\Problem name: CKP

Maximize
 obj: x1 + x2 + x3 + x4 + x5 + x6 + x7 + x8 + x9 + x10 + x11 + x12 + x13 + x14
      + x15 + x16 + x17 + x18 + x19 + x20 + x21 + x22 + x23 + x24 + x25 + x26
      + x27 + x28 + x29 + x30 + x31 + x32 + x33 + x34 + x35 + x36 + x37 + x38
      + x39 + x40 + x41 + x42 + x43 + x44 + x45 + x46 + x47 + x48 + x49 + x50
Subject To
 c1: 14273 x1 + 14274 x2 + 14275 x3 + 14309 x4 + 14310 x5 + 14311 x6 + 14345 x7
     + 14346 x8 + 14347 x9 + 14916 x10 + 14917 x11 + 14918 x12 + 14952 x13
     + 14953 x14 + 14954 x15 + 14988 x16 + 14989 x17 + 14990 x18 + 15559 x19
     + 15560 x20 + 15561 x21 + 15595 x22 + 15596 x23 + 14273 x24 + 14274 x25
     + 14275 x26 + 14309 x27 + 14310 x28 + 14311 x29 + 14346 x30 + 14347 x31
     + 14918 x32 + 14952 x33 + 14953 x34 + 14954 x35 + 14989 x36 + 15559 x37
     + 15560 x38 + 15561 x39 + 15595 x40 + 15597 x41 + 15631 x42 + 15632 x43
     + 15633 x44 + 27868 x45 + 27870 x46 + 27905 x47 + 27906 x48 + 27940 x49
     + 27941 x50 >= 382150
 c2: 14273 x1 + 14274 x2 + 14275 x3 + 14309 x4 + 14310 x5 + 14311 x6 + 14345 x7
     + 14346 x8 + 14347 x9 + 14916 x10 + 14917 x11 + 14918 x12 + 14952 x13
     + 14953 x14 + 14954 x15 + 14988 x16 + 14989 x17 + 14990 x18 + 15559 x19
     + 15560 x20 + 15561 x21 + 15595 x22 + 15596 x23 + 14273 x24 + 14274 x25
     + 14275 x26 + 14309 x27 + 14310 x28 + 14311 x29 + 14346 x30 + 14347 x31
     + 14918 x32 + 14952 x33 + 14953 x34 + 14954 x35 + 14989 x36 + 15559 x37
     + 15560 x38 + 15561 x39 + 15595 x40 + 15597 x41 + 15631 x42 + 15632 x43
     + 15633 x44 + 27868 x45 + 27870 x46 + 27905 x47 + 27906 x48 + 27940 x49
     + 27941 x50 <= 382151
Bounds
 0 <= x1 <= 1
 0 <= x2 <= 1
 0 <= x3 <= 1
 0 <= x4 <= 1
 0 <= x5 <= 1
 0 <= x6 <= 1
 0 <= x7 <= 1
 0 <= x8 <= 1
 0 <= x9 <= 1
 0 <= x10 <= 1
 0 <= x11 <= 1
 0 <= x12 <= 1
 0 <= x13 <= 1
 0 <= x14 <= 1
 0 <= x15 <= 1
 0 <= x16 <= 1
 0 <= x17 <= 1
 0 <= x18 <= 1
 0 <= x19 <= 1
 0 <= x20 <= 1
 0 <= x21 <= 1
 0 <= x22 <= 1
 0 <= x23 <= 1
 0 <= x24 <= 1
 0 <= x25 <= 1
 0 <= x26 <= 1
 0 <= x27 <= 1
 0 <= x28 <= 1
 0 <= x29 <= 1
 0 <= x30 <= 1
 0 <= x31 <= 1
 0 <= x32 <= 1
 0 <= x33 <= 1
 0 <= x34 <= 1
 0 <= x35 <= 1
 0 <= x36 <= 1
 0 <= x37 <= 1
 0 <= x38 <= 1
 0 <= x39 <= 1
 0 <= x40 <= 1
 0 <= x41 <= 1
 0 <= x42 <= 1
 0 <= x43 <= 1
 0 <= x44 <= 1
 0 <= x45 <= 1
 0 <= x46 <= 1
 0 <= x47 <= 1
 0 <= x48 <= 1
 0 <= x49 <= 1
 0 <= x50 <= 1
Binaries
 x1  x2  x3  x4  x5  x6  x7  x8  x9  x10  x11  x12  x13  x14  x15  x16  x17 
 x18  x19  x20  x21  x22  x23  x24  x25  x26  x27  x28  x29  x30  x31  x32 
 x33  x34  x35  x36  x37  x38  x39  x40  x41  x42  x43  x44  x45  x46  x47 
 x48  x49  x50 
End
